\ SCIP STATISTICS
\   Problem name     : neos5
\   Variables        : 63 (53 binary, 0 integer, 0 implicit integer, 10 continuous)
\   Constraints      : 63
Minimize
 Obj: +1 d52 +1 d1 +1 d2 +1 d3 +1 d4 +1 d5 +1 d6 +1 d7 +1 d8 +1 d9 +1 d10 +1 d11 +1 d12 +1 d13 +1 d14
      +1 d15 +1 d16 +1 d17 +1 d18 +1 d19 +1 d20 +1 d21 +1 d22 +1 d23 +1 d24 +1 d25 +1 d26 +1 d27 +1 d28
      +1 d29 +1 d30 +1 d31 +1 d32 +1 d33 +1 d34 +1 d35 +1 d36 +1 d37 +1 d38 +1 d39 +1 d40 +1 d41 +1 d42
      +1 d43 +1 d44 +1 d45 +1 d46 +1 d47 +1 d48 +1 d49 +1 d50 +1 d51 +1 d53 +1 d54 +1 d55 +1 d56 +1 d57
      +1 d58 +1 d59 +1 d60 +1 d61 +1 d62 +1 d63
Subject to
 R1: +1 d1 +1 d2 +1 d3 +1 d4 +1 d5 +1 d6 +1 d7 +1 d8 +1 d9 +1 d10 +1 d11 +1 d12 +1 d13 +1 d14 +1 d15 +1 d16
  +1 d17 +1 d18 +1 d19 +1 d20 +1 d21 +1 d22 +1 d23 +1 d24 +1 d25 +1 d26 +1 d27 +1 d28 +1 d29 +1 d30 +1 d31
  +1 d32 >= +8
 R2: +1 d1 +1 d2 +1 d3 +1 d4 +1 d5 +1 d6 +1 d7 +1 d8 +1 d9 +1 d10 +1 d11 +1 d12 +1 d13 +1 d14 +1 d15 +1 d16
  +1 d33 +1 d34 +1 d35 +1 d36 +1 d37 +1 d38 +1 d39 +1 d40 +1 d41 +1 d42 +1 d43 +1 d44 +1 d45 +1 d46 +1 d47
  +1 d48 >= +8
 R3: +1 d1 +1 d2 +1 d3 +1 d4 +1 d5 +1 d6 +1 d7 +1 d8 +1 d17 +1 d18 +1 d19 +1 d20 +1 d21 +1 d22 +1 d23
  +1 d24 +1 d33 +1 d34 +1 d35 +1 d36 +1 d37 +1 d38 +1 d39 +1 d40 +1 d49 +1 d50 +1 d51 +1 d52 +1 d53 +1 d54
  +1 d55 +1 d56 >= +8
 R4: +1 d1 +1 d2 +1 d3 +1 d4 +1 d9 +1 d10 +1 d11 +1 d12 +1 d17 +1 d18 +1 d19 +1 d20 +1 d25 +1 d26 +1 d27
  +1 d28 +1 d33 +1 d34 +1 d35 +1 d36 +1 d41 +1 d42 +1 d43 +1 d44 +1 d49 +1 d50 +1 d51 +1 d52 +1 d57 +1 d58
  +1 d59 +1 d60 >= +8
 R5: +1 d1 +1 d2 +1 d5 +1 d6 +1 d9 +1 d10 +1 d13 +1 d14 +1 d17 +1 d18 +1 d21 +1 d22 +1 d25 +1 d26 +1 d29
  +1 d30 +1 d33 +1 d34 +1 d37 +1 d38 +1 d41 +1 d42 +1 d45 +1 d46 +1 d49 +1 d50 +1 d53 +1 d54 +1 d57 +1 d58
  +1 d61 +1 d62 >= +8
 R6: +1 d1 +1 d3 +1 d5 +1 d7 +1 d9 +1 d11 +1 d13 +1 d15 +1 d17 +1 d19 +1 d21 +1 d23 +1 d25 +1 d27 +1 d29
  +1 d31 +1 d33 +1 d35 +1 d37 +1 d39 +1 d41 +1 d43 +1 d45 +1 d47 +1 d49 +1 d51 +1 d53 +1 d55 +1 d57 +1 d59
  +1 d61 +1 d63 >= +8
 R7: +1 d17 +1 d18 +1 d19 +1 d20 +1 d21 +1 d22 +1 d23 +1 d24 +1 d25 +1 d26 +1 d27 +1 d28 +1 d29 +1 d30
  +1 d31 +1 d32 +1 d33 +1 d34 +1 d35 +1 d36 +1 d37 +1 d38 +1 d39 +1 d40 +1 d41 +1 d42 +1 d43 +1 d44 +1 d45
  +1 d46 +1 d47 +1 d48 >= +7
 R8: +1 d9 +1 d10 +1 d11 +1 d12 +1 d13 +1 d14 +1 d15 +1 d16 +1 d25 +1 d26 +1 d27 +1 d28 +1 d29 +1 d30
  +1 d31 +1 d32 +1 d33 +1 d34 +1 d35 +1 d36 +1 d37 +1 d38 +1 d39 +1 d40 +1 d49 +1 d50 +1 d51 +1 d52 +1 d53
  +1 d54 +1 d55 +1 d56 >= +7
 R9: +1 d9 +1 d10 +1 d11 +1 d12 +1 d13 +1 d14 +1 d15 +1 d16 +1 d17 +1 d18 +1 d19 +1 d20 +1 d21 +1 d22
  +1 d23 +1 d24 +1 d41 +1 d42 +1 d43 +1 d44 +1 d45 +1 d46 +1 d47 +1 d48 +1 d49 +1 d50 +1 d51 +1 d52 +1 d53
  +1 d54 +1 d55 +1 d56 >= +7
 R10: +1 d5 +1 d6 +1 d7 +1 d8 +1 d13 +1 d14 +1 d15 +1 d16 +1 d21 +1 d22 +1 d23 +1 d24 +1 d29 +1 d30 +1 d31
  +1 d32 +1 d33 +1 d34 +1 d35 +1 d36 +1 d41 +1 d42 +1 d43 +1 d44 +1 d49 +1 d50 +1 d51 +1 d52 +1 d57 +1 d58
  +1 d59 +1 d60 >= +7
 R11: +1 d5 +1 d6 +1 d7 +1 d8 +1 d13 +1 d14 +1 d15 +1 d16 +1 d17 +1 d18 +1 d19 +1 d20 +1 d25 +1 d26 +1 d27
  +1 d28 +1 d37 +1 d38 +1 d39 +1 d40 +1 d45 +1 d46 +1 d47 +1 d48 +1 d49 +1 d50 +1 d51 +1 d52 +1 d57 +1 d58
  +1 d59 +1 d60 >= +7
 R12: +1 d5 +1 d6 +1 d7 +1 d8 +1 d9 +1 d10 +1 d11 +1 d12 +1 d21 +1 d22 +1 d23 +1 d24 +1 d25 +1 d26 +1 d27
  +1 d28 +1 d37 +1 d38 +1 d39 +1 d40 +1 d41 +1 d42 +1 d43 +1 d44 +1 d53 +1 d54 +1 d55 +1 d56 +1 d57 +1 d58
  +1 d59 +1 d60 >= +7
 R13: +1 d3 +1 d4 +1 d7 +1 d8 +1 d11 +1 d12 +1 d15 +1 d16 +1 d19 +1 d20 +1 d23 +1 d24 +1 d27 +1 d28 +1 d31
  +1 d32 +1 d33 +1 d34 +1 d37 +1 d38 +1 d41 +1 d42 +1 d45 +1 d46 +1 d49 +1 d50 +1 d53 +1 d54 +1 d57 +1 d58
  +1 d61 +1 d62 >= +7
 R14: +1 d3 +1 d4 +1 d7 +1 d8 +1 d11 +1 d12 +1 d15 +1 d16 +1 d17 +1 d18 +1 d21 +1 d22 +1 d25 +1 d26 +1 d29
  +1 d30 +1 d35 +1 d36 +1 d39 +1 d40 +1 d43 +1 d44 +1 d47 +1 d48 +1 d49 +1 d50 +1 d53 +1 d54 +1 d57 +1 d58
  +1 d61 +1 d62 >= +7
 R15: +1 d3 +1 d4 +1 d7 +1 d8 +1 d9 +1 d10 +1 d13 +1 d14 +1 d19 +1 d20 +1 d23 +1 d24 +1 d25 +1 d26 +1 d29
  +1 d30 +1 d35 +1 d36 +1 d39 +1 d40 +1 d41 +1 d42 +1 d45 +1 d46 +1 d51 +1 d52 +1 d55 +1 d56 +1 d57 +1 d58
  +1 d61 +1 d62 >= +7
 R16: +1 d3 +1 d4 +1 d5 +1 d6 +1 d11 +1 d12 +1 d13 +1 d14 +1 d19 +1 d20 +1 d21 +1 d22 +1 d27 +1 d28 +1 d29
  +1 d30 +1 d35 +1 d36 +1 d37 +1 d38 +1 d43 +1 d44 +1 d45 +1 d46 +1 d51 +1 d52 +1 d53 +1 d54 +1 d59 +1 d60
  +1 d61 +1 d62 >= +7
 R17: +1 d2 +1 d4 +1 d6 +1 d8 +1 d10 +1 d12 +1 d14 +1 d16 +1 d18 +1 d20 +1 d22 +1 d24 +1 d26 +1 d28 +1 d30
  +1 d32 +1 d33 +1 d35 +1 d37 +1 d39 +1 d41 +1 d43 +1 d45 +1 d47 +1 d49 +1 d51 +1 d53 +1 d55 +1 d57 +1 d59
  +1 d61 +1 d63 >= +7
 R18: +1 d2 +1 d4 +1 d6 +1 d8 +1 d10 +1 d12 +1 d14 +1 d16 +1 d17 +1 d19 +1 d21 +1 d23 +1 d25 +1 d27 +1 d29
  +1 d31 +1 d34 +1 d36 +1 d38 +1 d40 +1 d42 +1 d44 +1 d46 +1 d48 +1 d49 +1 d51 +1 d53 +1 d55 +1 d57 +1 d59
  +1 d61 +1 d63 >= +7
 R19: +1 d2 +1 d4 +1 d6 +1 d8 +1 d9 +1 d11 +1 d13 +1 d15 +1 d18 +1 d20 +1 d22 +1 d24 +1 d25 +1 d27 +1 d29
  +1 d31 +1 d34 +1 d36 +1 d38 +1 d40 +1 d41 +1 d43 +1 d45 +1 d47 +1 d50 +1 d52 +1 d54 +1 d56 +1 d57 +1 d59
  +1 d61 +1 d63 >= +7
 R20: +1 d2 +1 d4 +1 d5 +1 d7 +1 d10 +1 d12 +1 d13 +1 d15 +1 d18 +1 d20 +1 d21 +1 d23 +1 d26 +1 d28 +1 d29
  +1 d31 +1 d34 +1 d36 +1 d37 +1 d39 +1 d42 +1 d44 +1 d45 +1 d47 +1 d50 +1 d52 +1 d53 +1 d55 +1 d58 +1 d60
  +1 d61 +1 d63 >= +7
 R21: +1 d2 +1 d3 +1 d6 +1 d7 +1 d10 +1 d11 +1 d14 +1 d15 +1 d18 +1 d19 +1 d22 +1 d23 +1 d26 +1 d27 +1 d30
  +1 d31 +1 d34 +1 d35 +1 d38 +1 d39 +1 d42 +1 d43 +1 d46 +1 d47 +1 d50 +1 d51 +1 d54 +1 d55 +1 d58 +1 d59
  +1 d62 +1 d63 >= +7
 R22: +1 d1 +1 d2 +1 d3 +1 d4 +1 d5 +1 d6 +1 d7 +1 d8 +1 d25 +1 d26 +1 d27 +1 d28 +1 d29 +1 d30 +1 d31
  +1 d32 +1 d41 +1 d42 +1 d43 +1 d44 +1 d45 +1 d46 +1 d47 +1 d48 +1 d49 +1 d50 +1 d51 +1 d52 +1 d53 +1 d54
  +1 d55 +1 d56 >= +6
 R23: +1 d1 +1 d2 +1 d3 +1 d4 +1 d9 +1 d10 +1 d11 +1 d12 +1 d21 +1 d22 +1 d23 +1 d24 +1 d29 +1 d30 +1 d31
  +1 d32 +1 d37 +1 d38 +1 d39 +1 d40 +1 d45 +1 d46 +1 d47 +1 d48 +1 d49 +1 d50 +1 d51 +1 d52 +1 d57 +1 d58
  +1 d59 +1 d60 >= +6
 R24: +1 d1 +1 d2 +1 d3 +1 d4 +1 d13 +1 d14 +1 d15 +1 d16 +1 d17 +1 d18 +1 d19 +1 d20 +1 d29 +1 d30 +1 d31
  +1 d32 +1 d37 +1 d38 +1 d39 +1 d40 +1 d41 +1 d42 +1 d43 +1 d44 +1 d53 +1 d54 +1 d55 +1 d56 +1 d57 +1 d58
  +1 d59 +1 d60 >= +6
 R25: +1 d1 +1 d2 +1 d3 +1 d4 +1 d13 +1 d14 +1 d15 +1 d16 +1 d21 +1 d22 +1 d23 +1 d24 +1 d25 +1 d26 +1 d27
  +1 d28 +1 d33 +1 d34 +1 d35 +1 d36 +1 d45 +1 d46 +1 d47 +1 d48 +1 d53 +1 d54 +1 d55 +1 d56 +1 d57 +1 d58
  +1 d59 +1 d60 >= +6
 R26: +1 d1 +1 d2 +1 d5 +1 d6 +1 d9 +1 d10 +1 d13 +1 d14 +1 d19 +1 d20 +1 d23 +1 d24 +1 d27 +1 d28 +1 d31
  +1 d32 +1 d35 +1 d36 +1 d39 +1 d40 +1 d43 +1 d44 +1 d47 +1 d48 +1 d49 +1 d50 +1 d53 +1 d54 +1 d57 +1 d58
  +1 d61 +1 d62 >= +6
 R27: +1 d1 +1 d2 +1 d5 +1 d6 +1 d11 +1 d12 +1 d15 +1 d16 +1 d17 +1 d18 +1 d21 +1 d22 +1 d27 +1 d28 +1 d31
  +1 d32 +1 d35 +1 d36 +1 d39 +1 d40 +1 d41 +1 d42 +1 d45 +1 d46 +1 d51 +1 d52 +1 d55 +1 d56 +1 d57 +1 d58
  +1 d61 +1 d62 >= +6
 R28: +1 d1 +1 d2 +1 d5 +1 d6 +1 d11 +1 d12 +1 d15 +1 d16 +1 d19 +1 d20 +1 d23 +1 d24 +1 d25 +1 d26 +1 d29
  +1 d30 +1 d33 +1 d34 +1 d37 +1 d38 +1 d43 +1 d44 +1 d47 +1 d48 +1 d51 +1 d52 +1 d55 +1 d56 +1 d57 +1 d58
  +1 d61 +1 d62 >= +6
 R29: +1 d1 +1 d2 +1 d7 +1 d8 +1 d9 +1 d10 +1 d15 +1 d16 +1 d17 +1 d18 +1 d23 +1 d24 +1 d25 +1 d26 +1 d31
  +1 d32 +1 d35 +1 d36 +1 d37 +1 d38 +1 d43 +1 d44 +1 d45 +1 d46 +1 d51 +1 d52 +1 d53 +1 d54 +1 d59 +1 d60
  +1 d61 +1 d62 >= +6
 R30: +1 d1 +1 d2 +1 d7 +1 d8 +1 d9 +1 d10 +1 d15 +1 d16 +1 d19 +1 d20 +1 d21 +1 d22 +1 d27 +1 d28 +1 d29
  +1 d30 +1 d33 +1 d34 +1 d39 +1 d40 +1 d41 +1 d42 +1 d47 +1 d48 +1 d51 +1 d52 +1 d53 +1 d54 +1 d59 +1 d60
  +1 d61 +1 d62 >= +6
 R31: +1 d1 +1 d2 +1 d7 +1 d8 +1 d11 +1 d12 +1 d13 +1 d14 +1 d17 +1 d18 +1 d23 +1 d24 +1 d27 +1 d28 +1 d29
  +1 d30 +1 d33 +1 d34 +1 d39 +1 d40 +1 d43 +1 d44 +1 d45 +1 d46 +1 d49 +1 d50 +1 d55 +1 d56 +1 d59 +1 d60
  +1 d61 +1 d62 >= +6
 R32: +1 d1 +1 d3 +1 d5 +1 d7 +1 d9 +1 d11 +1 d13 +1 d15 +1 d18 +1 d20 +1 d22 +1 d24 +1 d26 +1 d28 +1 d30
  +1 d32 +1 d34 +1 d36 +1 d38 +1 d40 +1 d42 +1 d44 +1 d46 +1 d48 +1 d49 +1 d51 +1 d53 +1 d55 +1 d57 +1 d59
  +1 d61 +1 d63 >= +6
 R33: +1 d1 +1 d3 +1 d5 +1 d7 +1 d10 +1 d12 +1 d14 +1 d16 +1 d17 +1 d19 +1 d21 +1 d23 +1 d26 +1 d28 +1 d30
  +1 d32 +1 d34 +1 d36 +1 d38 +1 d40 +1 d41 +1 d43 +1 d45 +1 d47 +1 d50 +1 d52 +1 d54 +1 d56 +1 d57 +1 d59
  +1 d61 +1 d63 >= +6
 R34: +1 d1 +1 d3 +1 d5 +1 d7 +1 d10 +1 d12 +1 d14 +1 d16 +1 d18 +1 d20 +1 d22 +1 d24 +1 d25 +1 d27 +1 d29
  +1 d31 +1 d33 +1 d35 +1 d37 +1 d39 +1 d42 +1 d44 +1 d46 +1 d48 +1 d50 +1 d52 +1 d54 +1 d56 +1 d57 +1 d59
  +1 d61 +1 d63 >= +6
 R35: +1 d1 +1 d3 +1 d6 +1 d8 +1 d9 +1 d11 +1 d14 +1 d16 +1 d17 +1 d19 +1 d22 +1 d24 +1 d25 +1 d27 +1 d30
  +1 d32 +1 d34 +1 d36 +1 d37 +1 d39 +1 d42 +1 d44 +1 d45 +1 d47 +1 d50 +1 d52 +1 d53 +1 d55 +1 d58 +1 d60
  +1 d61 +1 d63 >= +6
 R36: +1 d1 +1 d3 +1 d6 +1 d8 +1 d9 +1 d11 +1 d14 +1 d16 +1 d18 +1 d20 +1 d21 +1 d23 +1 d26 +1 d28 +1 d29
  +1 d31 +1 d33 +1 d35 +1 d38 +1 d40 +1 d41 +1 d43 +1 d46 +1 d48 +1 d50 +1 d52 +1 d53 +1 d55 +1 d58 +1 d60
  +1 d61 +1 d63 >= +6
 R37: +1 d1 +1 d3 +1 d6 +1 d8 +1 d10 +1 d12 +1 d13 +1 d15 +1 d17 +1 d19 +1 d22 +1 d24 +1 d26 +1 d28 +1 d29
  +1 d31 +1 d33 +1 d35 +1 d38 +1 d40 +1 d42 +1 d44 +1 d45 +1 d47 +1 d49 +1 d51 +1 d54 +1 d56 +1 d58 +1 d60
  +1 d61 +1 d63 >= +6
 R38: +1 d1 +1 d4 +1 d5 +1 d8 +1 d9 +1 d12 +1 d13 +1 d16 +1 d17 +1 d20 +1 d21 +1 d24 +1 d25 +1 d28 +1 d29
  +1 d32 +1 d34 +1 d35 +1 d38 +1 d39 +1 d42 +1 d43 +1 d46 +1 d47 +1 d50 +1 d51 +1 d54 +1 d55 +1 d58 +1 d59
  +1 d62 +1 d63 >= +6
 R39: +1 d1 +1 d4 +1 d5 +1 d8 +1 d9 +1 d12 +1 d13 +1 d16 +1 d18 +1 d19 +1 d22 +1 d23 +1 d26 +1 d27 +1 d30
  +1 d31 +1 d33 +1 d36 +1 d37 +1 d40 +1 d41 +1 d44 +1 d45 +1 d48 +1 d50 +1 d51 +1 d54 +1 d55 +1 d58 +1 d59
  +1 d62 +1 d63 >= +6
 R40: +1 d1 +1 d4 +1 d5 +1 d8 +1 d10 +1 d11 +1 d14 +1 d15 +1 d17 +1 d20 +1 d21 +1 d24 +1 d26 +1 d27 +1 d30
  +1 d31 +1 d33 +1 d36 +1 d37 +1 d40 +1 d42 +1 d43 +1 d46 +1 d47 +1 d49 +1 d52 +1 d53 +1 d56 +1 d58 +1 d59
  +1 d62 +1 d63 >= +6
 R41: +1 d1 +1 d4 +1 d6 +1 d7 +1 d9 +1 d12 +1 d14 +1 d15 +1 d17 +1 d20 +1 d22 +1 d23 +1 d25 +1 d28 +1 d30
  +1 d31 +1 d33 +1 d36 +1 d38 +1 d39 +1 d41 +1 d44 +1 d46 +1 d47 +1 d49 +1 d52 +1 d54 +1 d55 +1 d57 +1 d60
  +1 d62 +1 d63 >= +6
 R42: +1 d5 +1 d6 +1 d7 +1 d8 +1 d9 +1 d10 +1 d11 +1 d12 +1 d17 +1 d18 +1 d19 +1 d20 +1 d29 +1 d30 +1 d31
  +1 d32 +1 d33 +1 d34 +1 d35 +1 d36 +1 d45 +1 d46 +1 d47 +1 d48 +1 d53 +1 d54 +1 d55 +1 d56 +1 d57 +1 d58
  +1 d59 +1 d60 >= +5
 R43: +1 d3 +1 d4 +1 d7 +1 d8 +1 d9 +1 d10 +1 d13 +1 d14 +1 d17 +1 d18 +1 d21 +1 d22 +1 d27 +1 d28 +1 d31
  +1 d32 +1 d33 +1 d34 +1 d37 +1 d38 +1 d43 +1 d44 +1 d47 +1 d48 +1 d51 +1 d52 +1 d55 +1 d56 +1 d57 +1 d58
  +1 d61 +1 d62 >= +5
 R44: +1 d3 +1 d4 +1 d5 +1 d6 +1 d11 +1 d12 +1 d13 +1 d14 +1 d17 +1 d18 +1 d23 +1 d24 +1 d25 +1 d26 +1 d31
  +1 d32 +1 d33 +1 d34 +1 d39 +1 d40 +1 d41 +1 d42 +1 d47 +1 d48 +1 d51 +1 d52 +1 d53 +1 d54 +1 d59 +1 d60
  +1 d61 +1 d62 >= +5
 R45: +1 d3 +1 d4 +1 d5 +1 d6 +1 d9 +1 d10 +1 d15 +1 d16 +1 d19 +1 d20 +1 d21 +1 d22 +1 d25 +1 d26 +1 d31
  +1 d32 +1 d33 +1 d34 +1 d39 +1 d40 +1 d43 +1 d44 +1 d45 +1 d46 +1 d49 +1 d50 +1 d55 +1 d56 +1 d59 +1 d60
  +1 d61 +1 d62 >= +5
 R46: +1 d3 +1 d4 +1 d5 +1 d6 +1 d9 +1 d10 +1 d15 +1 d16 +1 d17 +1 d18 +1 d23 +1 d24 +1 d27 +1 d28 +1 d29
  +1 d30 +1 d35 +1 d36 +1 d37 +1 d38 +1 d41 +1 d42 +1 d47 +1 d48 +1 d49 +1 d50 +1 d55 +1 d56 +1 d59 +1 d60
  +1 d61 +1 d62 >= +5
 R47: +1 d2 +1 d4 +1 d6 +1 d8 +1 d9 +1 d11 +1 d13 +1 d15 +1 d17 +1 d19 +1 d21 +1 d23 +1 d26 +1 d28 +1 d30
  +1 d32 +1 d33 +1 d35 +1 d37 +1 d39 +1 d42 +1 d44 +1 d46 +1 d48 +1 d50 +1 d52 +1 d54 +1 d56 +1 d57 +1 d59
  +1 d61 +1 d63 >= +5
 R48: +1 d2 +1 d4 +1 d5 +1 d7 +1 d10 +1 d12 +1 d13 +1 d15 +1 d17 +1 d19 +1 d22 +1 d24 +1 d25 +1 d27 +1 d30
  +1 d32 +1 d33 +1 d35 +1 d38 +1 d40 +1 d41 +1 d43 +1 d46 +1 d48 +1 d50 +1 d52 +1 d53 +1 d55 +1 d58 +1 d60
  +1 d61 +1 d63 >= +5
 R49: +1 d2 +1 d4 +1 d5 +1 d7 +1 d9 +1 d11 +1 d14 +1 d16 +1 d18 +1 d20 +1 d21 +1 d23 +1 d25 +1 d27 +1 d30
  +1 d32 +1 d33 +1 d35 +1 d38 +1 d40 +1 d42 +1 d44 +1 d45 +1 d47 +1 d49 +1 d51 +1 d54 +1 d56 +1 d58 +1 d60
  +1 d61 +1 d63 >= +5
 R50: +1 d2 +1 d4 +1 d5 +1 d7 +1 d9 +1 d11 +1 d14 +1 d16 +1 d17 +1 d19 +1 d22 +1 d24 +1 d26 +1 d28 +1 d29
  +1 d31 +1 d34 +1 d36 +1 d37 +1 d39 +1 d41 +1 d43 +1 d46 +1 d48 +1 d49 +1 d51 +1 d54 +1 d56 +1 d58 +1 d60
  +1 d61 +1 d63 >= +5
 R51: +1 d2 +1 d3 +1 d6 +1 d7 +1 d10 +1 d11 +1 d14 +1 d15 +1 d17 +1 d20 +1 d21 +1 d24 +1 d25 +1 d28 +1 d29
  +1 d32 +1 d33 +1 d36 +1 d37 +1 d40 +1 d41 +1 d44 +1 d45 +1 d48 +1 d50 +1 d51 +1 d54 +1 d55 +1 d58 +1 d59
  +1 d62 +1 d63 >= +5
 R52: +1 d2 +1 d3 +1 d6 +1 d7 +1 d9 +1 d12 +1 d13 +1 d16 +1 d18 +1 d19 +1 d22 +1 d23 +1 d25 +1 d28 +1 d29
  +1 d32 +1 d33 +1 d36 +1 d37 +1 d40 +1 d42 +1 d43 +1 d46 +1 d47 +1 d49 +1 d52 +1 d53 +1 d56 +1 d58 +1 d59
  +1 d62 +1 d63 >= +5
 R53: +1 d2 +1 d3 +1 d6 +1 d7 +1 d9 +1 d12 +1 d13 +1 d16 +1 d17 +1 d20 +1 d21 +1 d24 +1 d26 +1 d27 +1 d30
  +1 d31 +1 d34 +1 d35 +1 d38 +1 d39 +1 d41 +1 d44 +1 d45 +1 d48 +1 d49 +1 d52 +1 d53 +1 d56 +1 d58 +1 d59
  +1 d62 +1 d63 >= +5
 R54: +1 d2 +1 d3 +1 d5 +1 d8 +1 d10 +1 d11 +1 d13 +1 d16 +1 d18 +1 d19 +1 d21 +1 d24 +1 d26 +1 d27 +1 d29
  +1 d32 +1 d33 +1 d36 +1 d38 +1 d39 +1 d41 +1 d44 +1 d46 +1 d47 +1 d49 +1 d52 +1 d54 +1 d55 +1 d57 +1 d60
  +1 d62 +1 d63 >= +5
 R55: +1 d2 +1 d3 +1 d5 +1 d8 +1 d10 +1 d11 +1 d13 +1 d16 +1 d17 +1 d20 +1 d22 +1 d23 +1 d25 +1 d28 +1 d30
  +1 d31 +1 d34 +1 d35 +1 d37 +1 d40 +1 d42 +1 d43 +1 d45 +1 d48 +1 d49 +1 d52 +1 d54 +1 d55 +1 d57 +1 d60
  +1 d62 +1 d63 >= +5
 R56: +1 d2 +1 d3 +1 d5 +1 d8 +1 d9 +1 d12 +1 d14 +1 d15 +1 d18 +1 d19 +1 d21 +1 d24 +1 d25 +1 d28 +1 d30
  +1 d31 +1 d34 +1 d35 +1 d37 +1 d40 +1 d41 +1 d44 +1 d46 +1 d47 +1 d50 +1 d51 +1 d53 +1 d56 +1 d57 +1 d60
  +1 d62 +1 d63 >= +5
 R57: +1 d1 +1 d2 +1 d7 +1 d8 +1 d11 +1 d12 +1 d13 +1 d14 +1 d19 +1 d20 +1 d21 +1 d22 +1 d25 +1 d26 +1 d31
  +1 d32 +1 d35 +1 d36 +1 d37 +1 d38 +1 d41 +1 d42 +1 d47 +1 d48 +1 d49 +1 d50 +1 d55 +1 d56 +1 d59 +1 d60
  +1 d61 +1 d62 >= +4
 R58: +1 d1 +1 d3 +1 d6 +1 d8 +1 d10 +1 d12 +1 d13 +1 d15 +1 d18 +1 d20 +1 d21 +1 d23 +1 d25 +1 d27 +1 d30
  +1 d32 +1 d34 +1 d36 +1 d37 +1 d39 +1 d41 +1 d43 +1 d46 +1 d48 +1 d49 +1 d51 +1 d54 +1 d56 +1 d58 +1 d60
  +1 d61 +1 d63 >= +4
 R59: +1 d1 +1 d4 +1 d5 +1 d8 +1 d10 +1 d11 +1 d14 +1 d15 +1 d18 +1 d19 +1 d22 +1 d23 +1 d25 +1 d28 +1 d29
  +1 d32 +1 d34 +1 d35 +1 d38 +1 d39 +1 d41 +1 d44 +1 d45 +1 d48 +1 d49 +1 d52 +1 d53 +1 d56 +1 d58 +1 d59
  +1 d62 +1 d63 >= +4
 R60: +1 d1 +1 d4 +1 d6 +1 d7 +1 d9 +1 d12 +1 d14 +1 d15 +1 d18 +1 d19 +1 d21 +1 d24 +1 d26 +1 d27 +1 d29
  +1 d32 +1 d34 +1 d35 +1 d37 +1 d40 +1 d42 +1 d43 +1 d45 +1 d48 +1 d49 +1 d52 +1 d54 +1 d55 +1 d57 +1 d60
  +1 d62 +1 d63 >= +4
 R61: +1 d1 +1 d4 +1 d6 +1 d7 +1 d10 +1 d11 +1 d13 +1 d16 +1 d17 +1 d20 +1 d22 +1 d23 +1 d26 +1 d27 +1 d29
  +1 d32 +1 d34 +1 d35 +1 d37 +1 d40 +1 d41 +1 d44 +1 d46 +1 d47 +1 d50 +1 d51 +1 d53 +1 d56 +1 d57 +1 d60
  +1 d62 +1 d63 >= +4
 R62: +1 d1 +1 d4 +1 d6 +1 d7 +1 d10 +1 d11 +1 d13 +1 d16 +1 d18 +1 d19 +1 d21 +1 d24 +1 d25 +1 d28 +1 d30
  +1 d31 +1 d33 +1 d36 +1 d38 +1 d39 +1 d42 +1 d43 +1 d45 +1 d48 +1 d50 +1 d51 +1 d53 +1 d56 +1 d57 +1 d60
  +1 d62 +1 d63 >= +4
 R63: +1 d2 +1 d3 +1 d5 +1 d8 +1 d9 +1 d12 +1 d14 +1 d15 +1 d17 +1 d20 +1 d22 +1 d23 +1 d26 +1 d27 +1 d29
  +1 d32 +1 d33 +1 d36 +1 d38 +1 d39 +1 d42 +1 d43 +1 d45 +1 d48 +1 d50 +1 d51 +1 d53 +1 d56 +1 d57 +1 d60
  +1 d62 +1 d63 >= +3
Bounds
 0 <= d52 <= 1
 0 <= d1 <= 1
 0 <= d2 <= 1
 0 <= d3 <= 1
 0 <= d4 <= 1
 0 <= d5 <= 1
 0 <= d6 <= 1
 0 <= d7 <= 1
 0 <= d8 <= 1
 0 <= d9 <= 1
 0 <= d10 <= 1
 0 <= d11 <= 1
 0 <= d12 <= 1
 0 <= d13 <= 1
 0 <= d14 <= 1
 0 <= d15 <= 1
 0 <= d16 <= 1
 0 <= d17 <= 1
 0 <= d18 <= 1
 0 <= d19 <= 1
 0 <= d20 <= 1
 0 <= d21 <= 1
 0 <= d22 <= 1
 0 <= d23 <= 1
 0 <= d24 <= 1
 0 <= d25 <= 1
 0 <= d26 <= 1
 0 <= d27 <= 1
 0 <= d28 <= 1
 0 <= d29 <= 1
 0 <= d30 <= 1
 0 <= d31 <= 1
 0 <= d32 <= 1
 0 <= d33 <= 1
 0 <= d34 <= 1
 0 <= d35 <= 1
 0 <= d36 <= 1
 0 <= d37 <= 1
 0 <= d38 <= 1
 0 <= d39 <= 1
 0 <= d40 <= 1
 0 <= d41 <= 1
 0 <= d42 <= 1
 0 <= d43 <= 1
 0 <= d44 <= 1
 0 <= d45 <= 1
 0 <= d46 <= 1
 0 <= d47 <= 1
 0 <= d48 <= 1
 0 <= d49 <= 1
 0 <= d50 <= 1
 0 <= d51 <= 1
 0 <= d53 <= 1
 0 <= d54 <= 1
 0 <= d55 <= 1
 0 <= d56 <= 1
 0 <= d57 <= 1
 0 <= d58 <= 1
 0 <= d59 <= 1
 0 <= d60 <= 1
 0 <= d61 <= 1
 0 <= d62 <= 1
 0 <= d63 <= 1
Binaries
 d52 d1 d2 d3 d4 d5 d6 d7 d8 d9 d10 d11 d12 d13 d14 d15 d16 d17 d18 d19 d20 d21 d22 d23 d24 d25 d26 d27
 d28 d29 d30 d31 d32 d33 d34 d35 d36 d37 d38 d39 d40 d41 d42 d43 d44 d45 d46 d47 d48 d49 d50 d51 d53
End
